p cnf 1426 2236
-15 22 -28 59 0
-14 76 81 101 0
81 -84 -97 -101 0
3 65 -67 102 0
-67 -70 -91 -102 0
22 46 -56 103 0
22 46 -56 -103 0
-12 50 58 104 0
-12 50 58 -104 0
10 96 97 105 0
10 96 97 -105 0
64 -73 94 106 0
64 -73 94 -106 0
-8 55 -67 107 0
-67 71 -107 108 0
71 73 -108 109 0
73 -76 84 -109 0
-30 65 71 110 0
-30 65 71 -110 0
-1 -5 32 -56 0
-34 -44 55 111 0
55 56 -97 -111 0
-8 15 20 112 0
20 -25 -112 113 0
-25 35 -113 114 0
35 -56 69 -114 0
9 52 86 -91 0
-5 25 72 115 0
72 -74 -115 116 0
-74 -79 -116 117 0
-79 83 -117 118 0
83 89 100 -118 0
26 43 -61 119 0
-61 -74 -119 120 0
-74 78 -120 121 0
78 90 -121 122 0
90 -93 99 -122 0
-11 -31 -34 -50 0
-28 -37 -57 123 0
-28 -37 -57 -123 0
16 27 -28 124 0
-28 -38 -124 125 0
-38 -41 -125 126 0
-41 44 -126 127 0
44 -52 -127 128 0
-52 -54 -98 -128 0
-11 26 48 129 0
48 -71 -75 -129 0
9 -19 -27 130 0
-27 -32 -130 131 0
-32 -64 77 -131 0
-2 -55 -57 81 0
-10 14 -66 132 0
-66 -69 -94 -132 0
6 11 70 133 0
6 11 70 -133 0
-18 -58 83 134 0
-18 -58 83 -134 0
30 64 -78 135 0
-78 -93 98 -135 0
10 11 -23 136 0
-23 -53 -136 137 0
-53 -65 82 -137 0
7 10 12 138 0
12 44 -138 139 0
44 82 -88 -139 0
16 19 20 140 0
20 -52 -140 141 0
-52 54 -141 142 0
54 -74 -142 143 0
-74 78 -93 -143 0
6 -76 96 144 0
6 -76 96 -144 0
4 -50 70 -84 0
-9 12 -61 93 0
25 -77 145 146 0
25 -77 145 -146 0
25 -77 -145 146 0
25 -77 -145 -146 0
1 3 5 147 0
5 40 -147 148 0
40 -49 -148 149 0
-49 52 -149 150 0
52 72 73 -150 0
4 -46 82 151 0
4 -46 82 -151 0
28 -37 -49 152 0
-49 -77 -152 153 0
-77 -90 -100 -153 0
-1 60 71 154 0
-1 60 71 -154 0
-10 19 29 155 0
29 -59 65 -155 0
55 74 75 156 0
55 74 75 -156 0
-31 -51 62 157 0
62 -67 -157 158 0
-67 -86 -158 159 0
-86 88 -159 160 0
88 93 -99 -160 0
33 96 -98 161 0
33 96 -98 -161 0
-3 -25 -35 162 0
-35 78 -162 163 0
78 80 -163 164 0
80 -95 97 -164 0
-21 -36 165 166 0
-21 -36 165 -166 0
-21 -36 -165 166 0
-21 -36 -165 -166 0
15 54 -98 167 0
15 54 -98 -167 0
-80 -93 168 169 0
-80 -93 168 -169 0
-80 -93 -168 169 0
-80 -93 -168 -169 0
-12 -14 -37 170 0
-37 39 -40 -170 0
18 56 -57 171 0
-57 -71 81 -171 0
30 57 66 172 0
66 -78 -82 -172 0
51 -54 -99 173 0
51 -54 -99 -173 0
41 52 63 174 0
63 66 95 -174 0
20 -34 38 175 0
38 -49 -54 -175 0
3 -10 -19 176 0
-19 -36 -41 -176 0
3 59 60 177 0
60 -76 -177 178 0
-76 80 82 -178 0
5 6 -21 179 0
-21 -24 -179 180 0
-24 51 88 -180 0
8 -23 -32 181 0
-32 -69 -94 -181 0
-4 16 -17 182 0
-17 83 86 -182 0
-8 10 11 183 0
11 -13 -183 184 0
-13 15 -184 185 0
15 16 -185 186 0
16 -18 -186 187 0
-18 -23 83 -187 0
-3 69 -75 -87 0
-61 82 188 189 0
-61 82 188 -189 0
-61 82 -188 189 0
-61 82 -188 -189 0
-12 -21 33 190 0
33 44 -62 -190 0
-46 54 55 191 0
55 74 89 -191 0
7 -25 60 -96 0
-39 44 61 -89 0
-9 -17 45 192 0
45 82 99 -192 0
-36 42 64 193 0
64 78 -93 -193 0
93 -97 194 195 0
93 -97 194 -195 0
93 -97 -194 195 0
93 -97 -194 -195 0
-8 19 -58 -65 0
-31 -36 83 97 0
-14 -17 27 196 0
27 53 85 -196 0
2 66 73 197 0
73 82 -197 198 0
82 84 -198 199 0
84 89 100 -199 0
-20 -29 40 200 0
40 41 -200 201 0
41 48 -201 202 0
48 -58 -202 203 0
-58 -85 93 -203 0
-12 31 -36 204 0
-36 47 -204 205 0
47 -64 -205 206 0
-64 69 -89 -206 0
-6 47 51 -80 0
-20 -33 52 207 0
52 -64 89 -207 0
-35 54 87 208 0
-35 54 87 -208 0
32 42 56 209 0
56 -62 -209 210 0
-62 65 -210 211 0
65 83 -85 -211 0
-21 41 70 212 0
-21 41 70 -212 0
3 4 -9 213 0
-9 -23 -213 214 0
-23 31 -214 215 0
31 -33 -83 -215 0
45 87 216 217 0
45 87 216 -217 0
45 87 -216 217 0
45 87 -216 -217 0
-27 38 218 219 0
-27 38 218 -219 0
-27 38 -218 219 0
-27 38 -218 -219 0
10 -25 -30 220 0
-30 -34 -220 221 0
-34 47 -221 222 0
47 52 -222 223 0
52 -65 -223 224 0
-65 69 -224 225 0
69 -91 95 -225 0
12 -19 -87 226 0
12 -19 -87 -226 0
30 -40 -51 -88 0
29 31 49 227 0
49 85 -227 228 0
85 -88 95 -228 0
15 -46 229 230 0
15 -46 229 -230 0
15 -46 -229 230 0
15 -46 -229 -230 0
4 54 57 231 0
57 -84 90 -231 0
-40 43 -53 232 0
-40 43 -53 -232 0
27 28 59 233 0
27 28 59 -233 0
26 32 47 234 0
47 62 -234 235 0
62 69 -74 -235 0
-9 -26 -86 236 0
-9 -26 -86 -236 0
18 23 32 237 0
32 -44 -237 238 0
-44 -85 88 -238 0
6 8 -29 239 0
-29 -31 -239 240 0
-31 40 -240 241 0
40 -46 -241 242 0
-46 -50 -99 -242 0
49 54 -69 -95 0
7 34 -69 -98 0
23 79 243 244 0
23 79 243 -244 0
23 79 -243 244 0
23 79 -243 -244 0
-46 -56 -79 245 0
-79 86 -92 -245 0
12 15 -22 246 0
-22 28 -246 247 0
28 80 -84 -247 0
31 45 46 -81 0
-21 -25 53 248 0
53 54 -248 249 0
54 -61 -249 250 0
-61 -66 -72 -250 0
8 10 27 251 0
27 -40 -251 252 0
-40 47 -252 253 0
47 -48 -253 254 0
-48 -85 -254 255 0
-85 94 -97 -255 0
-3 19 -30 256 0
-30 -62 -256 257 0
-62 -68 -81 -257 0
-2 47 54 258 0
54 -55 93 -258 0
-16 -36 41 259 0
41 -48 -259 260 0
-48 -63 -260 261 0
-63 -67 -72 -261 0
39 -65 -79 262 0
-79 -83 -262 263 0
-83 -87 97 -263 0
50 57 -68 264 0
-68 -97 99 -264 0
27 -40 -67 265 0
-67 -70 83 -265 0
2 -8 -32 266 0
-32 79 -266 267 0
79 -84 -267 268 0
-84 91 92 -268 0
-10 36 -46 269 0
-46 66 -269 270 0
66 68 -270 271 0
68 81 -271 272 0
81 82 98 -272 0
61 74 77 273 0
77 79 -93 -273 0
-9 -50 -73 -79 0
-8 -19 62 274 0
62 63 -274 275 0
63 -69 90 -275 0
21 59 85 -98 0
21 -42 50 276 0
50 72 78 -276 0
-14 -33 46 277 0
46 -87 -94 -277 0
78 -91 278 279 0
78 -91 278 -279 0
78 -91 -278 279 0
78 -91 -278 -279 0
-1 -16 -19 280 0
-19 -40 -280 281 0
-40 -52 -281 282 0
-52 76 -282 283 0
76 77 -88 -283 0
18 50 -55 284 0
-55 62 -284 285 0
62 89 -90 -285 0
-27 30 -39 286 0
-39 -42 -286 287 0
-42 -78 -287 288 0
-78 -83 -288 289 0
-83 89 90 -289 0
21 -36 40 98 0
5 -6 -9 290 0
-9 -87 92 -290 0
-11 21 74 -96 0
8 20 44 291 0
44 -45 -291 292 0
-45 62 -292 293 0
62 63 -293 294 0
63 74 -294 295 0
74 82 -295 296 0
82 -90 -97 -296 0
8 -14 -58 297 0
-58 62 -297 298 0
62 -70 -298 299 0
-70 73 -74 -299 0
-15 -19 -31 300 0
-31 -74 90 -300 0
9 93 301 302 0
9 93 301 -302 0
9 93 -301 302 0
9 93 -301 -302 0
55 -68 85 303 0
55 -68 85 -303 0
20 -51 -60 92 0
2 -64 -66 72 0
28 29 -38 304 0
-38 -61 -67 -304 0
22 39 49 305 0
49 50 -305 306 0
50 -53 -306 307 0
-53 -63 -307 308 0
-63 78 -89 -308 0
-31 34 -40 309 0
-40 43 98 -309 0
-36 52 92 310 0
-36 52 92 -310 0
42 -49 58 311 0
58 -65 -311 312 0
-65 89 98 -312 0
-9 27 313 314 0
-9 27 313 -314 0
-9 27 -313 314 0
-9 27 -313 -314 0
18 -22 -44 315 0
-44 47 -315 316 0
47 53 -316 317 0
53 -60 -317 318 0
-60 -63 -318 319 0
-63 84 -92 -319 0
-11 24 -29 320 0
-29 -45 -320 321 0
-45 48 -321 322 0
48 -51 -81 -322 0
-17 -26 37 323 0
37 -38 -323 324 0
-38 -56 -324 325 0
-56 -96 99 -325 0
-3 5 44 326 0
44 83 95 -326 0
48 75 327 328 0
48 75 327 -328 0
48 75 -327 328 0
48 75 -327 -328 0
-12 -38 93 329 0
-12 -38 93 -329 0
-31 46 -83 330 0
-31 46 -83 -330 0
5 -11 -53 331 0
5 -11 -53 -331 0
-2 -21 -30 332 0
-30 50 -332 333 0
50 -64 -76 -333 0
6 -44 -58 334 0
-58 64 -334 335 0
64 71 98 -335 0
5 30 -98 336 0
5 30 -98 -336 0
5 15 -43 337 0
-43 59 -337 338 0
59 74 -338 339 0
74 -80 -339 340 0
-80 -90 97 -340 0
22 -23 -45 69 0
-35 -46 -51 341 0
-35 -46 -51 -341 0
-29 -84 342 343 0
-29 -84 342 -343 0
-29 -84 -342 343 0
-29 -84 -342 -343 0
25 -38 -53 344 0
25 -38 -53 -344 0
1 -9 -27 345 0
-27 30 -345 346 0
30 -40 -346 347 0
-40 55 73 -347 0
-37 -49 -55 348 0
-55 78 -348 349 0
78 83 99 -349 0
40 80 85 100 0
-18 32 -34 -54 0
40 -41 53 98 0
6 22 24 350 0
24 -46 -350 351 0
-46 49 -351 352 0
49 51 -72 -352 0
29 -34 62 353 0
62 73 -353 354 0
73 -75 -79 -354 0
-7 -46 50 355 0
50 -67 80 -355 0
-4 24 -34 -72 0
-23 -32 38 -92 0
-8 32 34 87 0
42 55 -75 356 0
-75 -84 -356 357 0
-84 -91 95 -357 0
-17 -46 -57 358 0
-57 -74 -358 359 0
-74 77 -92 -359 0
-35 -67 360 361 0
-35 -67 360 -361 0
-35 -67 -360 361 0
-35 -67 -360 -361 0
-4 -15 26 362 0
26 -68 -362 363 0
-68 88 -363 364 0
88 -93 96 -364 0
-14 19 -32 365 0
-32 50 -365 366 0
50 -60 -366 367 0
-60 64 -367 368 0
64 67 -368 369 0
67 -69 -78 -369 0
53 58 65 370 0
53 58 65 -370 0
59 97 371 372 0
59 97 371 -372 0
59 97 -371 372 0
59 97 -371 -372 0
-8 -25 -62 373 0
-62 72 -373 374 0
72 90 -374 375 0
90 97 98 -375 0
41 49 52 376 0
52 59 -376 377 0
59 -92 95 -377 0
4 23 -29 378 0
-29 -46 -378 379 0
-46 -48 -87 -379 0
32 -49 -54 380 0
-54 57 -380 381 0
57 71 -82 -381 0
-22 40 43 382 0
43 49 -65 -382 0
-27 -56 -82 97 0
-12 47 -49 383 0
-49 82 93 -383 0
35 56 57 98 0
37 52 64 384 0
64 86 95 -384 0
51 -54 96 385 0
51 -54 96 -385 0
19 -36 -80 -84 0
-15 -19 -31 88 0
-10 12 -13 386 0
-13 23 -386 387 0
23 -27 -387 388 0
-27 -30 -388 389 0
-30 34 -389 390 0
34 -70 92 -390 0
33 57 60 391 0
60 63 -66 -391 0
72 -83 -94 392 0
72 -83 -94 -392 0
5 9 -21 393 0
-21 23 -393 394 0
23 27 -394 395 0
27 73 -395 396 0
73 91 -96 -396 0
-6 28 32 397 0
32 44 -397 398 0
44 -61 -100 -398 0
-45 -64 81 399 0
-45 -64 81 -399 0
-25 74 84 -93 0
9 70 74 -77 0
6 9 11 400 0
11 -25 -41 -400 0
-3 -8 -21 401 0
-21 74 -401 402 0
74 -89 100 -402 0
-6 -48 -53 403 0
-53 -60 -79 -403 0
-23 85 90 -93 0
12 74 -76 404 0
-76 -79 -100 -404 0
31 55 -65 405 0
31 55 -65 -405 0
5 6 -21 406 0
-21 59 67 -406 0
3 19 407 408 0
3 19 407 -408 0
3 19 -407 408 0
3 19 -407 -408 0
73 -82 409 410 0
73 -82 409 -410 0
73 -82 -409 410 0
73 -82 -409 -410 0
-17 64 -76 411 0
-76 80 -411 412 0
80 82 -412 413 0
82 -85 93 -413 0
-39 74 80 414 0
-39 74 80 -414 0
-6 -10 -14 415 0
-14 41 -65 -415 0
-43 -53 64 65 0
-17 24 29 416 0
29 -34 -416 417 0
-34 44 -417 418 0
44 -65 78 -418 0
9 18 61 419 0
61 95 -100 -419 0
-2 8 -14 420 0
-14 34 -420 421 0
34 81 -421 422 0
81 -83 -422 423 0
-83 -88 -423 424 0
-88 92 98 -424 0
35 52 -70 425 0
-70 -83 -425 426 0
-83 87 99 -426 0
-20 -40 -43 -59 0
-7 -37 -46 -66 0
25 36 -37 427 0
-37 -47 -427 428 0
-47 -50 -428 429 0
-50 53 -429 430 0
53 -61 -63 -430 0
-20 35 57 431 0
57 -80 -84 -431 0
18 -28 -36 432 0
-36 -41 -432 433 0
-41 -73 86 -433 0
-11 -64 -66 90 0
-3 16 434 435 0
-3 16 434 -435 0
-3 16 -434 435 0
-3 16 -434 -435 0
-19 23 -75 -78 0
15 20 79 436 0
15 20 79 -436 0
-27 -67 92 437 0
-27 -67 92 -437 0
-2 7 73 438 0
-2 7 73 -438 0
39 73 -87 439 0
39 73 -87 -439 0
19 20 -32 440 0
-32 -62 -440 441 0
-62 -74 91 -441 0
-2 16 19 442 0
19 21 -442 443 0
21 53 -443 444 0
53 91 -97 -444 0
5 25 28 445 0
28 29 -445 446 0
29 -61 -446 447 0
-61 63 -447 448 0
63 -83 87 -448 0
15 -85 449 450 0
15 -85 449 -450 0
15 -85 -449 450 0
15 -85 -449 -450 0
2 13 -59 451 0
-59 79 -93 -451 0
-18 21 -70 452 0
-18 21 -70 -452 0
34 -86 453 454 0
34 -86 453 -454 0
34 -86 -453 454 0
34 -86 -453 -454 0
10 12 14 455 0
14 49 -455 456 0
49 -58 -456 457 0
-58 61 -457 458 0
61 81 82 -458 0
8 13 -55 91 0
37 -46 -58 459 0
-58 -86 -99 -459 0
-10 69 80 460 0
-10 69 80 -460 0
-19 28 38 461 0
38 -68 74 -461 0
2 -8 64 462 0
64 83 84 -462 0
5 -7 -40 463 0
-40 -60 -463 464 0
-60 71 -464 465 0
71 -76 -465 466 0
-76 -95 97 -466 0
-4 6 42 467 0
-4 6 42 -467 0
-12 -34 -44 468 0
-44 87 89 -468 0
-7 -30 -45 469 0
-7 -30 -45 -469 0
-2 24 63 470 0
-2 24 63 -470 0
-21 -23 -46 471 0
-46 48 -49 -471 0
27 65 -66 472 0
-66 -80 90 -472 0
-8 39 66 473 0
66 75 -473 474 0
75 -87 -91 -474 0
4 60 -63 475 0
4 60 -63 -475 0
50 61 72 75 0
29 -43 47 476 0
47 -58 -63 -476 0
12 -19 -28 477 0
-28 -45 -50 -477 0
12 68 69 478 0
69 -85 -478 479 0
-85 89 91 -479 0
-3 14 15 480 0
15 -30 -480 481 0
-30 -33 -481 482 0
-33 60 97 -482 0
17 -32 -41 -78 0
-13 25 -26 483 0
-26 92 95 -483 0
-17 19 20 484 0
20 -22 -484 485 0
-22 24 -485 486 0
24 25 -486 487 0
25 -27 -487 488 0
-27 -32 92 -488 0
-12 78 -84 -96 0
-70 91 489 490 0
-70 91 489 -490 0
-70 91 -489 490 0
-70 91 -489 -490 0
-21 -30 42 491 0
42 53 -71 -491 0
-5 -55 63 492 0
63 64 -492 493 0
64 83 98 -493 0
16 -34 69 494 0
16 -34 69 -494 0
8 -48 53 495 0
53 70 -98 -495 0
-2 -18 -26 496 0
-26 54 91 -496 0
2 -6 -45 497 0
-45 51 -497 498 0
51 73 87 -498 0
6 -17 28 499 0
28 -67 -74 -499 0
-40 -45 92 500 0
-40 -45 92 -500 0
9 -23 -26 501 0
-26 36 -501 502 0
36 62 94 -502 0
2 11 75 503 0
75 82 -503 504 0
82 91 -504 505 0
91 93 98 -505 0
-29 -38 49 506 0
49 50 -506 507 0
50 57 -507 508 0
57 -67 -94 -508 0
-21 40 -45 509 0
-45 56 -509 510 0
56 -73 -510 511 0
-73 78 -98 -511 0
-15 56 60 -89 0
-29 -42 61 512 0
61 -73 98 -512 0
-44 63 96 513 0
-44 63 96 -513 0
41 51 65 514 0
65 -71 -514 515 0
-71 74 -515 516 0
74 92 -94 -516 0
-30 50 79 517 0
-30 50 79 -517 0
12 13 -18 518 0
-18 -32 -518 519 0
-32 40 -519 520 0
40 -42 -92 -520 0
54 96 521 522 0
54 96 521 -522 0
54 96 -521 522 0
54 96 -521 -522 0
4 -36 47 523 0
4 -36 47 -523 0
19 -34 -39 524 0
-39 -43 -524 525 0
-43 56 -525 526 0
56 61 -526 527 0
61 -74 -527 528 0
-74 78 -100 -528 0
21 -28 -96 529 0
21 -28 -96 -529 0
4 39 -49 530 0
-49 -60 -97 -530 0
38 40 58 531 0
58 94 -97 -531 0
24 -55 532 533 0
24 -55 532 -533 0
24 -55 -532 533 0
24 -55 -532 -533 0
13 63 66 534 0
66 -93 99 -534 0
-49 52 -62 535 0
-49 52 -62 -535 0
36 37 68 536 0
36 37 68 -536 0
35 41 56 537 0
56 71 -537 538 0
71 78 -83 -538 0
-18 -35 -95 539 0
-18 -35 -95 -539 0
-8 27 32 540 0
32 41 -540 541 0
41 -53 -541 542 0
-53 -94 97 -542 0
-4 15 17 543 0
17 -38 -543 544 0
-38 -40 -544 545 0
-40 49 -545 546 0
49 -55 -59 -546 0
-7 58 63 -78 0
16 43 -78 547 0
16 43 -78 -547 0
-1 32 88 548 0
-1 32 88 -548 0
-55 -65 -88 95 0
21 24 -31 549 0
-31 37 -549 550 0
37 89 -93 -550 0
40 54 55 -90 0
3 -6 -30 551 0
-30 -34 -551 552 0
-34 62 -552 553 0
62 63 -553 554 0
63 -70 -554 555 0
-70 -75 -81 -555 0
17 19 36 556 0
36 -49 -556 557 0
-49 56 -557 558 0
56 -57 -94 -558 0
2 -12 28 559 0
28 -39 -559 560 0
-39 -71 -560 561 0
-71 -77 -90 -561 0
-11 56 63 -64 0
6 -25 -45 562 0
-45 50 -562 563 0
50 -57 -563 564 0
-57 -72 -564 565 0
-72 -76 -81 -565 0
-6 8 48 566 0
48 -74 -566 567 0
-74 -88 -567 568 0
-88 -92 -96 -568 0
59 66 -77 569 0
59 66 -77 -569 0
1 36 -49 570 0
-49 -76 -570 571 0
-76 -79 92 -571 0
7 11 -17 572 0
-17 -41 -572 573 0
-41 88 -573 574 0
88 -93 100 -574 0
-2 -19 45 575 0
45 -55 -575 576 0
-55 75 -576 577 0
75 77 -577 578 0
77 90 91 -578 0
70 83 86 88 0
-18 -59 -82 -88 0
-7 -17 -28 579 0
-28 71 -579 580 0
71 72 -580 581 0
72 -78 99 -581 0
30 68 94 582 0
30 68 94 -582 0
-3 30 -51 583 0
-51 59 -583 584 0
59 81 87 -584 0
-23 -42 55 -96 0
87 -100 585 586 0
87 -100 585 -586 0
87 -100 -585 586 0
87 -100 -585 -586 0
-10 -25 -28 587 0
-28 -49 -587 588 0
-49 -61 -588 589 0
-61 85 -589 590 0
85 86 -97 -590 0
27 59 -64 591 0
-64 71 -591 592 0
71 98 -99 -592 0
7 -36 39 593 0
39 -48 -593 594 0
-48 -51 -594 595 0
-51 -87 -595 596 0
-87 -92 -596 597 0
-92 98 99 -597 0
1 30 -45 49 0
-5 14 -15 598 0
-15 -18 -96 -598 0
-20 30 83 599 0
-20 30 83 -599 0
-6 -45 600 601 0
-6 -45 600 -601 0
-6 -45 -600 601 0
-6 -45 -600 -601 0
17 29 53 602 0
53 -54 -602 603 0
-54 71 -603 604 0
71 72 -604 605 0
72 83 -605 606 0
83 91 -99 -606 0
17 -23 -67 607 0
-67 71 -607 608 0
71 -79 -608 609 0
-79 82 -83 -609 0
2 -24 -28 610 0
-28 -40 -610 611 0
-40 -83 99 -611 0
1 64 -77 94 0
29 -60 -69 612 0
29 -60 -69 -612 0
11 -73 -75 81 0
37 38 -47 613 0
-47 -70 -76 -613 0
7 31 48 614 0
48 58 -614 615 0
58 59 -615 616 0
59 -62 -616 617 0
-62 -72 -617 618 0
-72 87 -98 -618 0
1 -40 43 619 0
43 -49 52 -619 0
7 -45 61 620 0
7 -45 61 -620 0
51 -58 67 621 0
67 -74 98 -621 0
-1 -18 36 622 0
-1 -18 36 -622 0
27 -31 -53 623 0
-53 56 -623 624 0
56 62 -624 625 0
62 -69 -625 626 0
-69 -72 93 -626 0
-5 8 -20 627 0
-20 33 -627 628 0
33 -38 -628 629 0
-38 -54 -629 630 0
-54 57 -630 631 0
57 -60 -90 -631 0
4 -26 -35 632 0
-35 46 -632 633 0
46 -47 -65 -633 0
-12 14 53 92 0
2 57 84 634 0
2 57 84 -634 0
-21 -47 635 636 0
-21 -47 635 -636 0
-21 -47 -635 636 0
-21 -47 -635 -636 0
-40 55 -92 637 0
-40 55 -92 -637 0
14 -20 -62 638 0
14 -20 -62 -638 0
7 -11 -30 639 0
-30 -39 -639 640 0
-39 59 -640 641 0
59 -73 -85 -641 0
-7 15 -53 642 0
-53 -67 -642 643 0
-67 73 80 -643 0
-1 14 39 644 0
-1 14 39 -644 0
14 24 -52 645 0
-52 68 -645 646 0
68 83 -646 647 0
83 -89 -99 -647 0
31 -32 -54 78 0
-44 -55 -60 648 0
-44 -55 -60 -648 0
-38 -93 649 650 0
-38 -93 649 -650 0
-38 -93 -649 650 0
-38 -93 -649 -650 0
34 -47 -62 651 0
34 -47 -62 -651 0
8 10 -18 652 0
-18 -36 -652 653 0
-36 39 -653 654 0
39 -49 -654 655 0
-49 64 82 -655 0
9 -46 -58 656 0
-58 -64 -656 657 0
-64 87 92 -657 0
49 89 94 658 0
49 89 94 -658 0
7 -27 41 659 0
41 -43 -63 -659 0
49 -50 62 660 0
49 -50 62 -660 0
15 31 33 661 0
33 -55 -661 662 0
-55 58 -662 663 0
58 60 -81 -663 0
38 -43 71 664 0
71 82 -664 665 0
82 -84 -88 -665 0
-16 -55 59 666 0
59 -76 89 -666 0
-1 -13 33 667 0
33 -43 -81 -667 0
-32 -41 47 668 0
-32 -41 47 -668 0
4 -17 41 669 0
41 43 96 -669 0
-1 51 64 670 0
64 -84 -670 671 0
-84 -93 -100 -671 0
-26 -55 -66 672 0
-66 -83 86 -672 0
-2 5 -44 -76 0
-13 -24 35 673 0
35 -77 97 -673 0
-23 28 -41 674 0
-41 59 -674 675 0
59 -69 -675 676 0
-69 73 -676 677 0
73 76 -677 678 0
76 -78 -87 -678 0
6 62 67 74 0
6 7 68 679 0
6 7 68 -679 0
-1 4 -17 680 0
-17 -34 -680 681 0
-34 -71 -681 682 0
-71 81 99 -682 0
50 58 61 68 0
13 32 -38 683 0
-38 -55 -683 684 0
-55 -57 -96 -684 0
41 -58 -63 685 0
-63 66 -685 686 0
66 80 -91 -686 0
6 -31 49 687 0
49 52 -687 688 0
52 58 -74 -688 0
2 -36 -65 -91 0
7 -21 56 689 0
56 -58 91 -689 0
4 44 65 66 0
5 46 61 690 0
61 73 95 -690 0
60 -63 691 692 0
60 -63 691 -692 0
60 -63 -691 692 0
60 -63 -691 -692 0
28 -45 -89 -93 0
1 -24 -28 693 0
-28 -40 97 -693 0
-19 21 -22 694 0
-22 32 -694 695 0
32 -36 -695 696 0
-36 -39 -696 697 0
-39 43 -79 -697 0
-3 42 66 698 0
66 69 -698 699 0
69 72 -75 -699 0
-5 81 -92 700 0
-5 81 -92 -700 0
-9 14 18 701 0
18 -30 -701 702 0
-30 32 -702 703 0
32 36 -703 704 0
36 82 100 -704 0
-15 37 41 705 0
41 53 -70 -705 0
-2 -54 -73 90 0
-34 83 93 706 0
-34 83 93 -706 0
18 79 83 -86 0
9 15 18 707 0
18 20 -707 708 0
20 -34 -50 -708 0
-12 -17 -30 709 0
-30 83 -98 -709 0
-2 -15 -57 710 0
-57 -62 -710 711 0
-62 -69 -88 -711 0
-9 -32 94 99 0
21 83 -85 -88 0
40 64 -74 712 0
40 64 -74 -712 0
14 15 -30 713 0
-30 68 76 -713 0
12 28 714 715 0
12 28 714 -715 0
12 28 -714 715 0
12 28 -714 -715 0
2 82 -91 716 0
2 82 -91 -716 0
-26 73 -85 717 0
-85 89 -717 718 0
89 91 -94 -718 0
-48 83 89 719 0
-48 83 89 -719 0
-15 -19 -23 720 0
-23 50 -74 -720 0
-52 -62 73 74 0
4 -9 -26 721 0
-26 33 -721 722 0
33 38 -722 723 0
38 -43 -723 724 0
-43 53 -724 725 0
53 -74 87 -725 0
1 7 18 726 0
18 27 70 -726 0
8 -11 17 727 0
17 -23 -727 728 0
-23 43 -728 729 0
43 90 -729 730 0
90 -92 -97 -730 0
44 61 -79 731 0
-79 -92 96 -731 0
-29 -49 -52 -68 0
-16 -46 -55 -75 0
34 45 -46 732 0
-46 -56 -732 733 0
-56 -59 -733 734 0
-59 62 -734 735 0
62 -70 -72 -735 0
-29 44 66 736 0
66 -89 -93 -736 0
27 -37 -45 737 0
-45 -50 -737 738 0
-50 -82 95 -738 0
-20 -73 -75 99 0
-12 25 739 740 0
-12 25 739 -740 0
-12 25 -739 740 0
-12 25 -739 -740 0
-28 32 -84 -87 0
1 24 29 88 0
-36 -76 741 742 0
-36 -76 741 -742 0
-36 -76 -741 742 0
-36 -76 -741 -742 0
-11 16 82 743 0
-11 16 82 -743 0
6 48 82 -96 0
-6 28 29 744 0
29 -41 -744 745 0
-41 -71 -745 746 0
-71 -83 100 -746 0
-11 25 28 747 0
28 30 -747 748 0
30 62 100 -748 0
14 34 37 749 0
37 38 -749 750 0
38 -70 -750 751 0
-70 72 -751 752 0
72 -92 96 -752 0
-2 24 -94 753 0
-2 24 -94 -753 0
11 22 -68 88 0
-27 30 -79 754 0
-27 30 -79 -754 0
43 -95 755 756 0
43 -95 755 -756 0
43 -95 -755 756 0
43 -95 -755 -756 0
19 21 23 757 0
23 58 -757 758 0
58 -67 -758 759 0
-67 70 -759 760 0
70 90 91 -760 0
17 22 -64 100 0
-8 -18 761 762 0
-8 -18 761 -762 0
-8 -18 -761 762 0
-8 -18 -761 -762 0
46 -55 -67 -95 0
-19 78 89 763 0
-19 78 89 -763 0
-28 37 47 764 0
47 -77 83 -764 0
-4 6 11 765 0
11 -17 -765 766 0
-17 73 -766 767 0
73 92 93 -767 0
14 -16 -49 768 0
-49 -69 -768 769 0
-69 80 -85 -769 0
-13 15 51 770 0
-13 15 51 -770 0
-21 -43 -53 771 0
-53 96 98 -771 0
-16 -39 -54 772 0
-16 -39 -54 -772 0
-11 33 72 773 0
-11 33 72 -773 0
-30 -32 -55 774 0
-55 57 -58 -774 0
36 74 -75 775 0
-75 -89 99 -775 0
-17 48 75 776 0
75 84 -776 777 0
84 -96 -100 -777 0
13 69 -72 778 0
13 69 -72 -778 0
59 70 81 84 0
38 -52 56 779 0
56 -67 -72 -779 0
21 -28 -37 780 0
-37 -54 -59 -780 0
6 21 77 781 0
77 78 -781 782 0
78 -94 -782 783 0
-94 98 100 -783 0
-12 23 24 784 0
24 -39 -784 785 0
-39 -42 69 -785 0
1 4 26 786 0
26 -41 -786 787 0
-41 -50 -87 -787 0
1 -22 34 -35 0
-5 -26 28 788 0
28 29 -788 789 0
29 -31 -789 790 0
-31 33 -790 791 0
33 34 -791 792 0
34 -36 -41 -792 0
-21 87 -93 793 0
-21 87 -93 -793 0
-79 100 794 795 0
-79 100 794 -795 0
-79 100 -794 795 0
-79 100 -794 -795 0
7 -30 -39 796 0
-39 51 -796 797 0
51 62 -80 -797 0
-14 -64 72 798 0
72 73 92 -798 0
-7 25 -43 78 0
17 -57 62 79 0
-11 -27 -35 799 0
-35 63 100 -799 0
11 -15 -54 800 0
-54 60 -800 801 0
60 82 96 -801 0
1 15 -26 802 0
-26 37 -802 803 0
37 -76 -83 -803 0
3 -49 -54 804 0
3 -49 -54 -804 0
2 7 18 805 0
18 -32 -805 806 0
-32 -35 -806 807 0
-35 45 71 -807 0
-3 11 20 808 0
20 84 -808 809 0
84 91 100 -809 0
-7 -38 -47 810 0
-47 58 -810 811 0
58 59 -811 812 0
59 66 -76 -812 0
-30 49 -54 813 0
-54 65 -813 814 0
65 -82 87 -814 0
7 -24 65 815 0
65 69 -98 -815 0
5 -38 -51 816 0
-51 70 -82 -816 0
1 -3 -53 72 0
50 60 74 817 0
74 -80 83 -817 0
-1 -39 59 88 0
21 22 -27 818 0
-27 -41 -818 819 0
-41 49 -51 -819 0
5 33 820 821 0
5 33 820 -821 0
5 33 -820 821 0
5 33 -820 -821 0
-9 13 -45 56 0
-5 28 -43 822 0
-43 -48 -822 823 0
-48 -52 -823 824 0
-52 65 -824 825 0
65 70 -825 826 0
70 -83 87 -826 0
-6 30 -37 827 0
-6 30 -37 -827 0
3 -6 13 828 0
13 48 -828 829 0
48 -58 -69 -829 0
47 49 67 830 0
47 49 67 -830 0
-2 8 33 -64 0
22 72 75 831 0
22 72 75 -831 0
-58 61 -71 832 0
-58 61 -71 -832 0
45 46 77 833 0
45 46 77 -833 0
-4 44 50 834 0
50 65 -834 835 0
65 80 -835 836 0
80 87 -92 -836 0
-3 6 -27 -44 0
-17 36 41 837 0
41 50 -62 -837 0
-13 24 26 838 0
26 -47 -838 839 0
-47 -49 -839 840 0
-49 58 -840 841 0
58 -64 -68 -841 0
-16 67 72 -87 0
25 52 -87 842 0
25 52 -87 -842 0
4 -10 41 97 0
-2 -64 -74 -97 0
30 33 -40 843 0
-40 46 98 -843 0
49 63 64 -99 0
-3 12 -15 844 0
-15 -39 -844 845 0
-39 -43 -845 846 0
-43 71 -846 847 0
71 72 -847 848 0
72 -79 -848 849 0
-79 -84 -90 -849 0
26 28 45 850 0
45 -58 -850 851 0
-58 65 -66 -851 0
11 -21 37 852 0
37 -48 -852 853 0
-48 -80 -853 854 0
-80 -86 -99 -854 0
-20 65 72 -73 0
-1 -5 15 855 0
15 -34 -855 856 0
-34 -54 -856 857 0
-54 59 -857 858 0
59 -66 -858 859 0
-66 -81 -859 860 0
-81 -85 -90 -860 0
-15 17 57 861 0
57 -83 -97 -861 0
1 68 75 -86 0
-2 9 10 862 0
10 45 -862 863 0
45 -58 -863 864 0
-58 -85 -88 -864 0
16 20 -26 865 0
-26 -50 97 -865 0
-11 -28 54 866 0
54 -64 -866 867 0
-64 84 -867 868 0
84 86 -868 869 0
86 99 100 -869 0
79 92 95 97 0
8 -27 -68 870 0
-68 -91 -97 -870 0
3 -16 -26 871 0
-26 -37 -871 872 0
-37 80 -872 873 0
80 81 -87 -873 0
39 77 874 875 0
39 77 874 -875 0
39 77 -874 875 0
39 77 -874 -875 0
-5 -12 39 876 0
39 -60 -876 877 0
-60 68 -877 878 0
68 90 96 -878 0
-9 -32 -51 64 0
-6 96 879 880 0
-6 96 879 -880 0
-6 96 -879 880 0
-6 96 -879 -880 0
7 -8 -19 881 0
-19 -34 -881 882 0
-34 -37 -882 883 0
-37 -58 -883 884 0
-58 -70 -884 885 0
-70 94 95 -885 0
-1 7 8 886 0
8 36 -886 887 0
36 68 -887 888 0
68 -73 80 -888 0
16 -45 48 889 0
48 -57 -889 890 0
-57 -60 -96 -890 0
-5 10 39 891 0
39 -54 58 -891 0
-14 23 -24 -27 0
-29 39 92 892 0
-29 39 92 -892 0
-8 -15 -54 893 0
-8 -15 -54 -893 0
26 38 62 894 0
62 -63 -894 895 0
-63 80 -895 896 0
80 81 -896 897 0
81 92 100 -897 0
8 26 -32 898 0
-32 -76 -898 899 0
-76 80 -899 900 0
80 -88 -900 901 0
-88 91 -92 -901 0
11 -33 -37 902 0
-37 -49 -92 -902 0
3 27 903 904 0
3 27 903 -904 0
3 27 -903 904 0
3 27 -903 -904 0
10 73 -86 905 0
10 73 -86 -905 0
38 -69 -78 906 0
38 -69 -78 -906 0
20 -82 -84 90 0
-7 46 47 907 0
47 -56 -907 908 0
-56 -79 -85 -908 0
16 40 57 909 0
57 67 -909 910 0
67 68 -910 911 0
68 -71 -911 912 0
-71 -81 96 -912 0
10 -49 52 913 0
52 -58 61 -913 0
7 16 -54 70 0
60 -67 76 -83 0
2 -10 -27 45 0
36 -40 -62 914 0
-62 65 -914 915 0
65 71 -915 916 0
71 -78 -81 -916 0
-14 17 -29 917 0
-29 42 -917 918 0
42 -47 -918 919 0
-47 -63 -919 920 0
-63 66 -920 921 0
66 -69 -99 -921 0
1 13 -35 922 0
-35 -44 -922 923 0
-44 55 -923 924 0
55 -56 -74 -924 0
-21 23 62 925 0
-21 23 62 -925 0
11 66 93 926 0
11 66 93 -926 0
-1 -30 -56 927 0
-1 -30 -56 -927 0
-49 64 928 929 0
-49 64 928 -929 0
-49 64 -928 929 0
-49 64 -928 -929 0
23 -29 -71 930 0
23 -29 -71 -930 0
16 -20 -39 931 0
-39 -48 -931 932 0
-48 68 -932 933 0
68 -82 -94 -933 0
-16 24 -62 934 0
-62 -76 -934 935 0
-76 82 89 -935 0
-10 23 48 936 0
-10 23 48 -936 0
-8 15 937 938 0
-8 15 937 -938 0
-8 15 -937 938 0
-8 15 -937 -938 0
23 33 -61 939 0
-61 77 -939 940 0
77 92 -98 -940 0
40 -41 -63 87 0
-2 -53 -64 -69 0
43 -56 -71 941 0
43 -56 -71 -941 0
1 17 19 942 0
19 -27 -942 943 0
-27 -45 -943 944 0
-45 48 -944 945 0
48 -58 -945 946 0
-58 73 91 -946 0
3 18 -55 947 0
-55 -67 -947 948 0
-67 -73 96 -948 0
58 98 949 950 0
58 98 949 -950 0
58 98 -949 950 0
58 98 -949 -950 0
16 -36 50 951 0
50 -52 -72 -951 0
58 -59 71 952 0
58 -59 71 -952 0
24 40 42 953 0
42 -64 -953 954 0
-64 67 -954 955 0
67 69 -90 -955 0
47 -52 80 956 0
80 91 -956 957 0
91 -93 -97 -957 0
-25 -64 68 958 0
68 -85 98 -958 0
-10 -22 42 959 0
42 -52 -90 -959 0
5 -41 -50 56 0
-2 -9 13 960 0
13 -26 -960 961 0
-26 50 52 -961 0
-10 60 73 -93 0
-35 -64 -75 962 0
-75 -92 95 -962 0
6 -11 14 963 0
14 -53 -85 -963 0
-22 -33 44 -86 0
-32 37 -50 964 0
-50 68 -964 965 0
68 -78 -965 966 0
-78 82 -966 967 0
82 85 -967 968 0
85 -87 -96 -968 0
15 71 76 83 0
8 15 16 77 0
-10 13 -26 969 0
-26 -43 -969 970 0
-43 -80 90 -970 0
-5 59 67 971 0
67 70 77 -971 0
22 41 -47 972 0
-47 -64 -66 -972 0
50 -67 -72 973 0
-72 75 -973 974 0
75 89 -100 -974 0
15 -40 58 975 0
58 61 -975 976 0
61 67 -83 -976 0
11 -45 -74 -100 0
16 -30 65 977 0
65 -67 100 -977 0
4 13 53 978 0
53 74 75 -978 0
14 55 70 82 0
-3 69 -72 979 0
-3 69 -72 -979 0
6 37 -54 -98 0
10 -33 -37 -49 0
-28 30 -31 980 0
-31 41 -980 981 0
41 -45 -981 982 0
-45 -48 -982 983 0
-48 52 -88 -983 0
-1 -12 51 984 0
51 75 -984 985 0
75 78 -985 986 0
78 81 -84 -986 0
9 -14 90 987 0
9 -14 90 -987 0
-18 23 27 988 0
27 -39 -988 989 0
-39 41 -989 990 0
41 45 91 -990 0
-24 46 50 991 0
50 62 -79 -991 0
2 -11 -63 992 0
-63 -82 99 -992 0
-43 92 993 994 0
-43 92 993 -994 0
-43 92 -993 994 0
-43 92 -993 -994 0
27 88 92 -95 0
-7 18 24 995 0
24 27 -995 996 0
27 29 -996 997 0
29 -43 -59 -997 0
-21 -26 -39 92 0
3 8 -11 998 0
-11 -24 -998 999 0
-24 -66 -999 1000 0
-66 -71 -1000 1001 0
-71 -78 -97 -1001 0
-18 -41 1002 1003 0
-18 -41 1002 -1003 0
-18 -41 -1002 1003 0
-18 -41 -1002 -1003 0
30 92 -94 -97 0
49 73 -83 1004 0
49 73 -83 -1004 0
23 24 -39 1005 0
-39 77 85 -1005 0
21 37 1006 1007 0
21 37 1006 -1007 0
21 37 -1006 1007 0
21 37 -1006 -1007 0
-3 11 91 -100 0
-35 82 -94 1008 0
-94 98 100 -1008 0
-57 92 98 1009 0
-57 92 98 -1009 0
-24 -28 -32 1010 0
-32 59 -83 -1010 0
-61 -71 82 83 0
13 -18 -35 1011 0
-35 42 -1011 1012 0
42 47 -1012 1013 0
47 -52 -1013 1014 0
-52 62 -1014 1015 0
62 -83 96 -1015 0
-1 -6 10 1016 0
10 16 -1016 1017 0
16 27 -1017 1018 0
27 36 79 -1018 0
-1 5 17 1019 0
17 -20 -1019 1020 0
-20 26 -1020 1021 0
26 -32 -1021 1022 0
-32 52 99 -1022 0
53 70 -88 1023 0
53 70 -88 -1023 0
-38 -58 -61 -77 0
-25 -55 -64 -84 0
-2 43 54 1024 0
54 -55 -1024 1025 0
-55 -65 -1025 1026 0
-65 -68 -1026 1027 0
-68 71 -1027 1028 0
71 -79 -81 -1028 0
4 -38 53 1029 0
53 75 -98 -1029 0
8 36 -46 1030 0
-46 -54 -1030 1031 0
-54 -59 -91 -1031 0
-29 -82 -84 1032 0
-29 -82 -84 -1032 0
-21 34 1033 1034 0
-21 34 1033 -1034 0
-21 34 -1033 1034 0
-21 34 -1033 -1034 0
-37 41 -93 -96 0
10 33 38 97 0
-45 -85 1035 1036 0
-45 -85 1035 -1036 0
-45 -85 -1035 1036 0
-45 -85 -1035 -1036 0
-5 -20 25 91 0
15 57 91 1037 0
15 57 91 -1037 0
9 -15 37 1038 0
37 38 -1038 1039 0
38 -50 -1039 1040 0
-50 -80 -92 -1040 0
-1 5 -20 1041 0
-20 34 -1041 1042 0
34 37 -1042 1043 0
37 39 71 -1043 0
-3 23 43 1044 0
43 46 -1044 1045 0
46 47 -1045 1046 0
47 -79 81 -1046 0
-11 33 1047 1048 0
-11 33 1047 -1048 0
-11 33 -1047 1048 0
-11 33 -1047 -1048 0
20 31 -77 97 0
-4 -36 39 -88 0
9 28 30 1049 0
30 32 -1049 1050 0
32 67 -1050 1051 0
67 -76 -1051 1052 0
-76 79 -1052 1053 0
79 99 100 -1053 0
26 31 -73 1054 0
26 31 -73 -1054 0
-4 -17 -27 1055 0
-4 -17 -27 -1055 0
55 -64 -76 1056 0
55 -64 -76 -1056 0
-28 87 98 1057 0
-28 87 98 -1057 0
1 2 -37 1058 0
-37 46 -1058 1059 0
46 56 -1059 1060 0
56 -86 92 -1060 0
-13 15 20 1061 0
20 -26 82 -1061 0
23 -25 -58 1062 0
-58 -78 -1062 1063 0
-78 89 -94 -1063 0
5 7 -22 1064 0
-22 24 60 -1064 0
-30 -52 -62 1065 0
-30 -52 -62 -1065 0
-25 -48 -63 1066 0
-25 -48 -63 -1066 0
-7 -20 42 81 0
8 -39 -41 1067 0
-41 -64 -1067 1068 0
-64 66 -67 -1068 0
-5 -9 45 1069 0
45 83 -1069 1070 0
83 -84 -98 -1070 0
-26 57 84 93 0
22 78 -81 1071 0
22 78 -81 -1071 0
68 79 90 93 0
47 -61 65 1072 0
65 -76 -81 -1072 0
-3 7 9 1073 0
9 30 -1073 1074 0
30 -37 -1074 1075 0
-37 -46 -1075 1076 0
-46 -63 -68 -1076 0
15 30 86 87 0
-21 32 33 1077 0
33 -48 -1077 1078 0
-48 -51 78 -1078 0
10 13 35 1079 0
35 -50 -1079 1080 0
-50 -59 -96 -1080 0
10 -31 43 -44 0
-2 -14 -35 1081 0
-35 37 -1081 1082 0
37 38 -1082 1083 0
38 -40 -1083 1084 0
-40 42 -1084 1085 0
42 43 -1085 1086 0
43 -45 -50 -1086 0
9 -30 96 1087 0
9 -30 96 -1087 0
1 16 -39 1088 0
-39 -48 -1088 1089 0
-48 60 -1089 1090 0
60 71 -89 -1090 0
-23 -73 81 82 0
-16 34 -52 87 0
9 26 -66 1091 0
-66 71 88 -1091 0
5 -20 -36 1092 0
-36 -44 72 -1092 0
20 -24 -63 1093 0
-63 69 91 -1093 0
10 24 -35 1094 0
-35 46 -1094 1095 0
46 -85 -92 -1095 0
12 -58 -63 1096 0
12 -58 -63 -1096 0
9 11 16 1097 0
16 27 -1097 1098 0
27 -41 -1098 1099 0
-41 -44 -1099 1100 0
-44 54 80 -1100 0
-12 20 29 1101 0
29 93 100 -1101 0
-16 -47 -56 1102 0
-56 67 -1102 1103 0
67 68 -1103 1104 0
68 75 -85 -1104 0
-7 -39 58 1105 0
58 -63 -1105 1106 0
-63 74 -1106 1107 0
74 -91 96 -1107 0
16 -33 74 78 0
14 -47 -60 1108 0
-60 79 -91 -1108 0
10 -12 -62 81 0
59 69 83 1109 0
83 -89 92 -1109 0
-10 -48 68 97 0
30 31 -36 1110 0
-36 -50 -1110 1111 0
-50 58 -60 -1111 0
14 42 1112 1113 0
14 42 1112 -1113 0
14 42 -1112 1113 0
14 42 -1112 -1113 0
-18 22 -54 65 0
-14 37 -52 1114 0
-52 -57 -1114 1115 0
-57 -61 -1115 1116 0
-61 74 -1116 1117 0
74 79 -1117 1118 0
79 -92 96 -1118 0
-15 39 -46 1119 0
-15 39 -46 -1119 0
12 -15 22 1120 0
22 57 -1120 1121 0
57 -67 -78 -1121 0
56 58 76 1122 0
56 58 76 -1122 0
-11 17 42 -73 0
31 81 84 1123 0
31 81 84 -1123 0
-67 70 -80 1124 0
-67 70 -80 -1124 0
-1 54 55 86 0
-13 53 59 1125 0
59 74 -1125 1126 0
74 89 96 -1126 0
-12 15 -36 -53 0
-26 45 50 1127 0
50 59 -71 -1127 0
-22 33 35 1128 0
35 -56 -1128 1129 0
-56 -58 -1129 1130 0
-58 67 -1130 1131 0
67 -73 -77 -1131 0
-25 76 81 -96 0
6 34 61 -96 0
-6 13 -19 50 0
7 -11 -73 -83 0
-8 39 42 1132 0
42 -49 55 -1132 0
58 72 73 1133 0
58 72 73 -1133 0
-12 21 -24 1134 0
-24 -48 -1134 1135 0
-48 -52 -1135 1136 0
-52 80 -1136 1137 0
80 81 -1137 1138 0
81 -88 -1138 1139 0
-88 -93 -99 -1139 0
-8 35 37 1140 0
37 54 -1140 1141 0
54 -67 -1141 1142 0
-67 74 -75 -1142 0
20 -30 46 1143 0
46 -57 -1143 1144 0
-57 -89 -95 -1144 0
-29 74 81 -82 0
-6 -10 -14 1145 0
-14 24 -1145 1146 0
24 -43 -1146 1147 0
-43 -63 -1147 1148 0
-63 68 -1148 1149 0
68 -75 -1149 1150 0
-75 -90 -1150 1151 0
-90 -94 -99 -1151 0
-24 26 66 -92 0
10 77 84 -95 0
6 -11 18 1152 0
18 19 -1152 1153 0
19 54 -1153 1154 0
54 -67 -1154 1155 0
-67 -94 -97 -1155 0
8 9 25 1156 0
25 29 -1156 1157 0
29 -35 -59 -1157 0
1 4 6 1158 0
6 -20 -1158 1159 0
-20 -37 -1159 1160 0
-37 63 -1160 1161 0
63 -73 -1161 1162 0
-73 93 95 -1162 0
-6 88 1163 1164 0
-6 88 1163 -1164 0
-6 88 -1163 1164 0
-6 88 -1163 -1164 0
17 -36 -77 -100 0
12 -25 -35 1165 0
-35 -46 -1165 1166 0
-46 89 -1166 1167 0
89 90 -96 -1167 0
5 48 86 1168 0
5 48 86 -1168 0
-14 -21 48 1169 0
48 -69 -1169 1170 0
-69 77 99 -1170 0
5 -18 -41 1171 0
-41 -60 73 -1171 0
3 4 -15 1172 0
3 4 -15 -1172 0
16 -17 -28 1173 0
-28 -43 -1173 1174 0
-43 -46 -1174 1175 0
-46 -67 -79 -1175 0
-5 -10 16 1176 0
16 17 -1176 1177 0
17 45 -1177 1178 0
45 77 -1178 1179 0
77 -82 89 -1179 0
25 -54 57 1180 0
57 -66 -69 -1180 0
-14 19 48 1181 0
48 -63 67 -1181 0
1 -23 32 1182 0
32 -33 -36 -1182 0
-38 48 1183 1184 0
-38 48 1183 -1184 0
-38 48 -1183 1184 0
-38 48 -1183 -1184 0
1 9 -17 1185 0
-17 -24 -63 -1185 0
-1 35 47 1186 0
47 71 -1186 1187 0
71 -72 -1187 1188 0
-72 89 90 -1188 0
-1 17 35 1189 0
35 -41 -1189 1190 0
-41 -85 -1190 1191 0
-85 89 -1191 1192 0
89 -97 100 -1192 0
20 -42 -46 -58 0
12 36 1193 1194 0
12 36 1193 -1194 0
12 36 -1193 1194 0
12 36 -1193 -1194 0
19 82 -95 1195 0
19 82 -95 -1195 0
47 -78 -87 1196 0
47 -78 -87 -1196 0
29 -91 -93 99 0
5 -16 55 1197 0
55 56 -1197 1198 0
56 -65 -1198 1199 0
-65 -88 -94 -1199 0
25 49 66 1200 0
66 76 -1200 1201 0
76 77 -1201 1202 0
77 -80 -90 -1202 0
19 -58 61 1203 0
61 -67 70 -1203 0
16 25 -63 79 0
69 -76 85 -92 0
11 -19 -36 54 0
-8 45 -49 1204 0
-49 -71 -1204 1205 0
-71 74 -1205 1206 0
74 80 -1206 1207 0
80 -87 -90 -1207 0
-23 26 -38 1208 0
-38 51 -1208 1209 0
51 -56 -1209 1210 0
-56 -72 -1210 1211 0
-72 75 -78 -1211 0
10 22 -44 1212 0
-44 -53 -1212 1213 0
-53 64 -1213 1214 0
64 -65 -83 -1214 0
2 -30 32 71 0
20 75 1215 1216 0
20 75 1215 -1216 0
20 75 -1215 1216 0
20 75 -1215 -1216 0
-10 -39 -65 1217 0
-10 -39 -65 -1217 0
-58 73 1218 1219 0
-58 73 1218 -1219 0
-58 73 -1218 1219 0
-58 73 -1218 -1219 0
-3 32 -38 -80 0
25 -29 -48 1220 0
-48 -57 -1220 1221 0
-57 77 -91 -1221 0
-25 33 -71 1222 0
-71 -85 -1222 1223 0
-85 91 98 -1223 0
-19 32 57 1224 0
-19 32 57 -1224 0
1 -7 -17 24 0
32 42 -70 86 0
49 -50 -72 96 0
-11 -62 -73 -78 0
52 -65 -80 1225 0
52 -65 -80 -1225 0
5 10 26 1226 0
26 28 -1226 1227 0
28 -36 -1227 1228 0
-36 -54 -1228 1229 0
-54 57 -1229 1230 0
57 -67 -1230 1231 0
-67 82 100 -1231 0
7 12 27 1232 0
27 -64 -1232 1233 0
-64 -76 -82 -1233 0
25 -45 59 1234 0
59 -61 -81 -1234 0
67 -68 80 1235 0
67 -68 80 -1235 0
-2 -6 33 1236 0
33 49 -1236 1237 0
49 51 -1237 1238 0
51 -73 -1238 1239 0
-73 76 -1239 1240 0
76 78 -99 -1240 0
7 56 -61 1241 0
-61 89 100 -1241 0
-34 -73 77 -94 0
-19 -31 51 1242 0
51 -61 -99 -1242 0
14 -50 -59 65 0
-2 -11 -18 1243 0
-18 22 -1243 1244 0
22 -35 -1244 1245 0
-35 59 61 -1245 0
-1 4 -19 1246 0
-19 69 82 -1246 0
-44 -73 -84 1247 0
-44 -73 -84 -1247 0
15 -20 23 1248 0
23 -62 -94 -1248 0
-5 -31 -42 1249 0
-42 53 -95 -1249 0
-41 46 -59 1250 0
-59 77 -1250 1251 0
77 -87 -1251 1252 0
-87 91 -1252 1253 0
91 94 -96 -1253 0
24 80 85 92 0
17 24 25 86 0
-19 22 -35 1254 0
-35 -52 -1254 1255 0
-52 -89 99 -1255 0
-14 68 76 1256 0
76 79 86 -1256 0
-9 31 50 1257 0
50 -56 -1257 1258 0
-56 -73 -75 -1258 0
59 -76 -81 1259 0
-81 84 98 -1259 0
-9 24 -49 1260 0
-49 67 -1260 1261 0
67 70 -1261 1262 0
70 76 -92 -1262 0
9 20 -54 -83 0
25 -39 74 -76 0
13 22 62 1263 0
62 83 84 -1263 0
23 64 79 91 0
-12 78 -81 1264 0
-12 78 -81 -1264 0
-7 -11 1265 1266 0
-7 -11 1265 -1266 0
-7 -11 -1265 1266 0
-7 -11 -1265 -1266 0
15 46 -63 1267 0
15 46 -63 -1267 0
19 -42 -46 -58 0
-37 39 -40 1268 0
-40 50 -1268 1269 0
50 -54 -1269 1270 0
-54 -57 -1270 1271 0
-57 61 -97 -1271 0
-10 -21 60 1272 0
60 84 -1272 1273 0
84 87 -1273 1274 0
87 90 -93 -1274 0
18 -23 99 1275 0
18 -23 99 -1275 0
-27 32 36 1276 0
36 -48 -1276 1277 0
-48 50 -1277 1278 0
50 54 100 -1278 0
8 -33 55 1279 0
55 59 -1279 1280 0
59 71 -88 -1280 0
1 11 -20 1281 0
-20 -72 -91 -1281 0
1 -4 -52 1282 0
1 -4 -52 -1282 0
36 97 1283 1284 0
36 97 1283 -1284 0
36 97 -1283 1284 0
36 97 -1283 -1284 0
1 -16 27 1285 0
27 33 -1285 1286 0
33 36 -1286 1287 0
36 38 -1287 1288 0
38 -52 -68 -1288 0
-6 -30 -35 -48 0
12 17 -20 1289 0
-20 -33 -1289 1290 0
-33 -75 -1290 1291 0
-75 -80 -87 -1291 0
1 -3 -6 1292 0
-6 -27 -50 -1292 0
58 82 -92 1293 0
58 82 -92 -1293 0
32 33 -48 1294 0
-48 86 94 -1294 0
-9 30 46 1295 0
-9 30 46 -1295 0
-3 7 9 1296 0
9 -12 -1296 1297 0
-12 20 100 -1297 0
1 7 -44 91 0
-33 -37 -41 1298 0
-41 68 -92 -1298 0
5 -70 -80 1299 0
-80 91 92 -1299 0
22 -27 -44 1300 0
-44 51 -1300 1301 0
51 56 -1301 1302 0
56 -61 -1302 1303 0
-61 71 -92 -1303 0
8 -10 -15 1304 0
-15 19 -1304 1305 0
19 25 -1305 1306 0
25 36 -1306 1307 0
36 45 88 -1307 0
-10 14 26 1308 0
26 -29 -1308 1309 0
-29 35 -1309 1310 0
35 -41 61 -1310 0
62 79 -97 1311 0
62 79 -97 -1311 0
-47 -67 -70 -86 0
-34 -64 -73 -93 0
-7 -11 52 1312 0
52 63 -1312 1313 0
63 -64 -1313 1314 0
-64 -74 -1314 1315 0
-74 -77 -1315 1316 0
-77 80 -1316 1317 0
80 -88 -90 -1317 0
13 -47 62 84 0
17 45 -55 1318 0
-55 -63 -1318 1319 0
-63 -68 -100 -1319 0
-38 -91 -93 1320 0
-38 -91 -93 -1320 0
-2 -5 -30 43 0
6 -46 50 1321 0
6 -46 50 -1321 0
19 42 47 1322 0
19 42 47 -1322 0
-54 -94 1323 1324 0
-54 -94 1323 -1324 0
-54 -94 -1323 1324 0
-54 -94 -1323 -1324 0
-14 -29 34 100 0
24 66 100 1325 0
24 66 100 -1325 0
-1 18 1326 1327 0
-1 18 1326 -1327 0
-1 18 -1326 1327 0
-1 18 -1326 -1327 0
18 -24 46 1328 0
46 47 -1328 1329 0
47 -59 -89 -1329 0
-10 14 -29 1330 0
-29 43 -1330 1331 0
43 46 -1331 1332 0
46 48 80 -1332 0
-12 32 52 1333 0
52 55 -1333 1334 0
55 56 -1334 1335 0
56 -88 90 -1335 0
6 -20 42 1336 0
6 -20 42 -1336 0
29 40 -86 1337 0
29 40 -86 -1337 0
-13 -45 48 -97 0
8 9 61 1338 0
8 9 61 -1338 0
18 37 39 1339 0
39 41 -1339 1340 0
41 76 -1340 1341 0
76 -85 88 -1341 0
35 40 -82 1342 0
35 40 -82 -1342 0
-13 -26 -36 1343 0
-13 -26 -36 -1343 0
7 64 -73 -85 0
1 -37 96 1344 0
1 -37 96 -1344 0
10 11 -46 1345 0
-46 55 -1345 1346 0
55 65 -95 -1346 0
-3 -22 24 1347 0
24 29 -1347 1348 0
29 -35 91 -1348 0
32 -34 -67 1349 0
-67 -87 98 -1349 0
14 16 -31 1350 0
-31 33 69 -1350 0
-39 -61 -71 1351 0
-39 -61 -71 -1351 0
-34 -57 -72 1352 0
-34 -57 -72 -1352 0
-16 -29 51 90 0
-7 17 -48 1353 0
-48 -50 -1353 1354 0
-50 -73 -1354 1355 0
-73 75 -76 -1355 0
2 -14 -18 1356 0
-18 54 -1356 1357 0
54 92 -93 -1357 0
-35 66 93 1358 0
-35 66 93 -1358 0
2 31 87 -90 0
77 88 99 1359 0
77 88 99 -1359 0
56 -70 74 1360 0
74 -85 -90 -1360 0
-12 16 18 1361 0
18 39 -1361 1362 0
39 -46 -1362 1363 0
-46 -55 -1363 1364 0
-55 -72 -77 -1364 0
24 39 95 96 0
-5 -30 41 1365 0
41 42 -1365 1366 0
42 -57 -1366 1367 0
-57 -60 87 -1367 0
19 22 44 1368 0
44 -59 -68 -1368 0
19 -40 52 -53 0
5 -11 -23 1369 0
-23 -44 -1369 1370 0
-44 46 -1370 1371 0
46 47 -1371 1372 0
47 -49 -1372 1373 0
-49 51 -1373 1374 0
51 52 -1374 1375 0
52 -54 -59 -1375 0
18 -39 1376 1377 0
18 -39 1376 -1377 0
18 -39 -1376 1377 0
18 -39 -1376 -1377 0
10 25 -48 1378 0
-48 -57 -1378 1379 0
-57 69 -1379 1380 0
69 80 -98 -1380 0
-32 -82 90 91 0
-25 43 -61 96 0
18 35 -75 1381 0
-75 80 97 -1381 0
14 -29 -45 1382 0
-45 -53 81 -1382 0
29 -33 -72 1383 0
-72 78 100 -1383 0
19 33 -44 1384 0
-44 55 -94 -1384 0
21 -67 -72 1385 0
21 -67 -72 -1385 0
2 9 18 1386 0
18 20 -1386 1387 0
20 25 -1387 1388 0
25 36 -1388 1389 0
36 -50 -1389 1390 0
-50 -53 -1390 1391 0
-53 63 89 -1391 0
-21 29 38 1392 0
-21 29 38 -1392 0
5 -25 -56 1393 0
-56 -65 -1393 1394 0
-65 76 -1394 1395 0
76 77 -1395 1396 0
77 84 -94 -1396 0
-16 -48 67 1397 0
67 -72 -1397 1398 0
-72 83 -100 -1398 0
25 -42 83 87 0
23 -56 -69 1399 0
-69 88 -100 -1399 0
1 19 -21 1400 0
-21 -71 90 -1400 0
6 68 78 1401 0
78 92 -98 -1401 0
-19 -57 77 1402 0
-19 -57 77 -1402 0
39 40 -45 1403 0
-45 -59 -1403 1404 0
-59 67 -69 -1404 0
23 51 1405 1406 0
23 51 1405 -1406 0
23 51 -1405 1406 0
23 51 -1405 -1406 0
-1 5 -27 1407 0
-27 31 -1407 1408 0
31 -63 74 -1408 0
-23 46 -61 1409 0
-61 -66 -1409 1410 0
-66 -70 -1410 1411 0
-70 83 88 -1411 0
-24 48 -55 1412 0
-24 48 -55 -1412 0
21 -24 31 1413 0
31 66 -1413 1414 0
66 -76 -87 -1414 0
65 67 85 1415 0
65 67 85 -1415 0
-20 26 51 -82 0
40 90 93 1416 0
40 90 93 -1416 0
-76 79 -89 1417 0
-76 79 -89 -1417 0
5 -10 63 1418 0
63 64 95 -1418 0
-22 62 68 1419 0
68 83 98 -1419 0
-21 24 -45 -62 0
-35 54 59 1420 0
59 68 -80 -1420 0
-5 -31 42 1421 0
42 44 -1421 1422 0
44 -65 -1422 1423 0
-65 -67 -1423 1424 0
-67 76 -1424 1425 0
76 -82 -86 -1425 0
-5 -34 85 90 0
15 43 70 1426 0
15 43 70 -1426 0
